&CONTROL
  calculation = 'scf'
  restart_mode= 'from_scratch'
  prefix      = 'LiNbO3'
  pseudo_dir  = '/u/elsto/pseudos/lda'
  outdir      = './outdir/LiNbO3.nk=1'
  tprnfor     = .true.
  !tstress     = .true.
  verbosity   = 'low'
  lelpol      = .true.
  !max_seconds = 6800
  !etot_conv_thr = 1.0D-7
  !forc_conv_thr = 1.0D-6
  !nstep = 100
/
&SYSTEM
  ecutwfc = 80
  ecutrho = 960
  ibrav = 0
  nat   = 30
  ntyp  = 3
  occupations = 'fixed'
/
&ELECTRONS
  !mixing_mode = 'local-TF'
  !mixing_beta = 0.9
  !mixing_ndim=25
  !diagonalization = 'davidson' !ppcg, paro
  diago_david_ndim = 4
  conv_thr = 1.0D-8
  ! diago_thr_init = 1.0D-4
  electron_maxstep=80
  startingpot = 'atomic'
  startingwfc = 'atomic'
  !reset_ethr = .true.
/
&IONS
  !upscale = 10
  pot_extrapolation = 'second_order'
  wfc_extrapolation = 'second_order'
  !trust_radius_min = 1.0D-4
/
&CELL
  cell_dofree = 'all'
/
ATOMIC_SPECIES
  Nb  92.90638 Nb.pz-spn-rrkjus_psl.1.0.0.UPF
  Li  6.941    Li.pz-sl-rrkjus_psl.1.0.0.UPF
  O   15.9994  O.pz-nl-rrkjus_psl.1.0.0.UPF

K_POINTS automatic
  1 1 1 0 0 0

CELL_PARAMETERS bohr
 9.589884  0.000000  0.000000
-4.794941  8.305078  0.000000
 0.000011 -0.000006 25.888857

ATOMIC_POSITIONS bohr
Nb       0.00000093       0.00001719       0.02746994       
Nb      -0.00000221       0.00000443      12.97190932       
Nb       4.79493514       2.76834827       8.65710241       
Nb       4.79495773       2.76837513      21.60152415       
Nb       0.00000425       5.53673452      17.28670408       
Nb      -0.00000134       5.53671663       4.34228934       
Li      -0.00001372      -0.00001142       5.63989590       
Li       0.00000873       0.00001638      18.58418501       
Li       4.79492915       2.76838613      14.26940456       
Li       4.79494211       2.76834710       1.32506346       
Li       0.00000884       5.53672165      22.89895769       
Li       0.00000636       5.53670400       9.95470909       
O       -1.24954099       2.65899656       2.66594396       
O        3.11693835       5.89343371       2.66592868       
O       -1.86739514       8.05770224       2.66592930       
O        1.86740547       8.05773222      15.61033267       
O        1.24954206       2.65901786      15.61032802       
O       -3.11695139       5.89345675      15.61034856       
O        3.54539447       5.42735080      11.29554678       
O        3.11695123       0.35670508      11.29554057       
O        7.72248106       2.52099738      11.29553146       
O        1.86740975       2.52099150      24.23996282       
O        6.04449763       5.42737701      24.23996375       
O        6.47296133       0.35672488      24.23995944       
O       -1.24952011       8.19574098      19.92514249       
O       -1.67798415       3.12509904      19.92514331       
O        2.92755133       5.28935586      19.92513302       
O       -2.92755768       5.28933290       6.98072341       
O        1.24953859       8.19570421       6.98074317       
O        1.67798713       3.12506281       6.98073955       
